%mem=1000mb
%chk=LiuKun1.chk LiuKun2.chk
#p sto-3g scf=maxcycle=999 {cmd=g16 scfMethod1=hf scfmethod2=hf scftyp2=hftyp convergence=normal task=mecp method=ln hessianN=1 stepSize=1}
 
T1
 
0 1 3
H
N                  1            B1
C                  2            B2    1            A1
O                  3            B3    2            A2    1            D1    0

    B1     =     1.08     
    B2     =     1.5
    B3     =     1.4
    A1     =     107.696454
    A2     =     134.13593
    D1     =     182.0

 
