%chk=S0.chk T1.chk
%mem=1500mb
%nprocshared=4
#p ub3lyp/6-31g* scf=maxcycle=999 {task=mecp method=ln hessianN=1 stepSize=1 Lambda=0.46639}

T1

0 1 3
C
F                  1            B1
F                  1            B2    2            A1
F                  1            B3    2            A2    3            D1    0
C                  1            B4    4            A3    3            D2    0
N                  5            B5    1            A4    4            D3    0
O                  1            B6    4            A5    3            D4    0

    B1     =     1.32794
    B2     =     1.326814
    B3     =     1.325303
    B4     =     1.720585
    B5     =     1.290703
    B6     =     2.504896
    A1     =     110.540131
    A2     =     109.943931
    A3     =     104.208067
    A4     =     97.742961
    A5     =     79.898481
    D1     =     120.628669
    D2     =     123.34003
    D3     =     -161.549623
    D4     =     132.300239

   
   
