%mem=64mb
%chk=LiuKun1.chk LiuKun2.chk
#p sto-3g scf=maxcycle=300 {scfMethod1=hf scfmethod2=hf scftyp2=hftyp task=mecpGuess method=lineapproximate hessianN=1 stepSize=0.02 sqp_tao=0.9 mecpfreq}
 
T1
 
0 1 3
 H
 N,1,B1
 C,2,B2,1,A1
 O,3,B3,2,A2,1,D1,0

 B1=1.0355122
 B2=1.24516804
 B3=1.18274467
 A1=114.65520914
 A2=169.73727237
 D1=180.15261329
#####
 B1=1.05628145
 B2=1.43204769
 B3=1.25244738
 A1=105.6852775
 A2=123.46201289
 D1=179.96189487
 
 
