%mem=120GB
%nprocshared=28
%chk=S0.chk S0.chk
#p pbe1pbe/6-31g* guess=read scf=maxcycle=300 {cmd=g16 scfmethod2=tda scftyp2=tdatyp task=mecp method=caln hessianN=1 cyc=98 stepSize=0.2 convergencetyp=loose lambda=2.502 isreadfirst=false}
 
s0/s1
 
0 1 1
C
C                  1            B1
C                  1            B2    2            A1
C                  2            B3    1            A2    3            D1    0
N                  2            B4    1            A3    3            D2    0
N                  1            B5    2            A4    5            D3    0
C                  3            B6    1            A5    6            D4    0
C                  3            B7    1            A6    6            D5    0
C                  7            B8    3            A7    1            D6    0
C                  4            B9    2            A8    1            D7    0
S                  6           B10    1            A9    2            D8    0
H                  7           B11    3           A10    1            D9    0
C                  8           B12    3           A11    1           D10    0
C                  8           B13    3           A12    1           D11    0
H                  9           B14    7           A13    3           D12    0
C                 10           B15    4           A14    2           D13    0
C                 10           B16    4           A15    2           D14    0
C                 13           B17    8           A16    3           D15    0
H                 13           B18    8           A17    3           D16    0
C                 14           B19    8           A18    3           D17    0
O                 14           B20    8           A19    3           D18    0
C                 16           B21   10           A20    4           D19    0
H                 16           B22   10           A21    4           D20    0
C                 17           B23   10           A22    4           D21    0
O                 17           B24   10           A23    4           D22    0
C                 20           B25   14           A24    8           D23    0
H                 18           B26   13           A25    8           D24    0
H                 20           B27   14           A26    8           D25    0
C                 21           B28   14           A27    8           D26    0
C                 24           B29   17           A28   10           D27    0
H                 22           B30   16           A29   10           D28    0
H                 24           B31   17           A30   10           D29    0
C                 25           B32   17           A31   10           D30    0
O                 26           B33   20           A32   14           D31    0
H                 29           B34   21           A33   14           D32    0
H                 29           B35   21           A34   14           D33    0
H                 29           B36   21           A35   14           D34    0
O                 30           B37   24           A36   17           D35    0
H                 33           B38   25           A37   17           D36    0
H                 33           B39   25           A38   17           D37    0
H                 33           B40   25           A39   17           D38    0
C                 34           B41   26           A40   20           D39    0
C                 38           B42   30           A41   24           D40    0
H                 42           B43   34           A42   26           D41    0
H                 42           B44   34           A43   26           D42    0
H                 42           B45   34           A44   26           D43    0
H                 43           B46   38           A45   30           D44    0
H                 43           B47   38           A46   30           D45    0
H                 43           B48   38           A47   30           D46    0

    B1     =     1.338941
    B2     =     1.465998
    B3     =     1.451869
    B4     =     1.470831
    B5     =     1.473925
    B6     =     1.448398
    B7     =     1.412521
    B8     =     1.345177
    B9     =     1.418715
   B10     =     1.662799
   B11     =     1.078407
   B12     =     1.439598
   B13     =     1.462441
   B14     =     1.08039
   B15     =     1.434884
   B16     =     1.455928
   B17     =     1.367963
   B18     =     1.096391
   B19     =     1.377683
   B20     =     1.336245
   B21     =     1.371255
   B22     =     1.097684
   B23     =     1.378452
   B24     =     1.339078
   B25     =     1.40783
   B26     =     1.083552
   B27     =     1.082368
   B28     =     1.415482
   B29     =     1.40706
   B30     =     1.083648
   B31     =     1.082467
   B32     =     1.414177
   B33     =     1.329841
   B34     =     1.09595
   B35     =     1.096305
   B36     =     1.089977
   B37     =     1.33301
   B38     =     1.096255
   B39     =     1.096488
   B40     =     1.090223
   B41     =     1.422173
   B42     =     1.420572
   B43     =     1.094476
   B44     =     1.094436
   B45     =     1.089747
   B46     =     1.094746
   B47     =     1.094862
   B48     =     1.089968
    A1     =     120.52254
    A2     =     118.97905
    A3     =     115.681458
    A4     =     114.964876
    A5     =     118.874107
    A6     =     121.842289
    A7     =     119.845869
    A8     =     121.568237
    A9     =     90.438718
   A10     =     120.270394
   A11     =     118.16347
   A12     =     126.039125
   A13     =     119.958861
   A14     =     118.835072
   A15     =     124.938482
   A16     =     122.574445
   A17     =     114.708314
   A18     =     120.369115
   A19     =     117.522199
   A20     =     122.451266
   A21     =     114.384792
   A22     =     120.533977
   A23     =     117.215571
   A24     =     120.437834
   A25     =     119.625239
   A26     =     122.240367
   A27     =     119.140374
   A28     =     120.364215
   A29     =     119.505514
   A30     =     122.282257
   A31     =     118.984696
   A32     =     114.776181
   A33     =     110.838825
   A34     =     111.305585
   A35     =     105.5561
   A36     =     114.697352
   A37     =     110.889686
   A38     =     111.409038
   A39     =     105.605377
   A40     =     119.105991
   A41     =     118.900401
   A42     =     110.888366
   A43     =     110.925092
   A44     =     105.494804
   A45     =     110.991425
   A46     =     110.990734
   A47     =     105.555107
    D1     =     14.092449
    D2     =     -172.940683
    D3     =     0.541891
    D4     =     184.360727
    D5     =     9.43302
    D6     =     -6.221829
    D7     =     163.746451
    D8     =     -30.921811
    D9     =     -182.203786
   D10     =     15.777238
   D11     =     -169.643644
   D12     =     -176.727828
   D13     =     22.831633
   D14     =     -159.791561
   D15     =     163.511294
   D16     =     -16.400265
   D17     =     -162.820143
   D18     =     19.595915
   D19     =     170.448822
   D20     =     -8.398852
   D21     =     -169.874805
   D22     =     13.214404
   D23     =     -4.919647
   D24     =     -177.490964
   D25     =     -182.132077
   D26     =     177.719708
   D27     =     -3.321253
   D28     =     -177.523759
   D29     =     -180.633816
   D30     =     177.713786
   D31     =     179.651808
   D32     =     -59.783574
   D33     =     62.672146
   D34     =     -178.41967
   D35     =     179.680123
   D36     =     -60.561542
   D37     =     61.859847
   D38     =     -179.181179
   D39     =     178.633552
   D40     =     177.973551
   D41     =     -63.17378
   D42     =     59.332137
   D43     =     -181.873468
   D44     =     -61.365469
   D45     =     61.11003
   D46     =     -180.148318


   

 
