%mem=1000mb
%chk=LiuKun2.chk
#p sto-3g scf=maxcycle=999 freq=noraman IOP(7/33=1) hf

T1

0 3
H
N                  1            B1
C                  2            B2    1            A1
O                  3            B3    2            A2    1            D1    0

    B1     =     1.050854
    B2     =     1.362627
    B3     =     1.234559
    A1     =     107.69446
    A2     =     134.13625
    D1     =     179.99618


