%mem=1000mb
%chk=LiuKun1.chk
#p sto-3g scf=maxcycle=999 freq=noraman IOP(7/33=1) hf

T1

0 1
H
N                  1            B1
C                  2            B2    1            A1
O                  3            B3    2            A2    1            D1    0

    B1     =     1.051012
    B2     =     1.364199
    B3     =     1.232095
    A1     =     107.600038
    A2     =     133.852078
    D1     =     180.585753


