%mem=1000mb
%chk=LiuKun2.chk
#p sto-3g scf=maxcycle=999 freq=noraman IOP(7/33=1) hf

T1

0 3
H
N                  1            B1
C                  2            B2    1            A1
O                  3            B3    2            A2    1            D1    0

    B1     =     1.050484
    B2     =     1.409216
    B3     =     1.148234
    A1     =     106.077759
    A2     =     134.004733
    D1     =     192.675975


